<number of tasks>
50

<cycle time>
1000

<order strength>
0.203


<task times>
1 284
2 463
3 250
4 121
5 54
6 233
7 186
8 243
9 77
10 86
11 329
12 56
13 142
14 205
15 545
16 267
17 530
18 346
19 69
20 236
21 45
22 218
23 335
24 49
25 147
26 516
27 507
28 193
29 44
30 118
31 280
32 286
33 348
34 89
35 202
36 228
37 85
38 161
39 317
40 123
41 441
42 535
43 264
44 120
45 344
46 413
47 205
48 361
49 522
50 76

<precedence relations>
1,13
2,9
2,11
5,40
6,8
6,10
6,14
7,12
9,35
10,16
10,20
10,38
12,17
12,19
13,15
13,18
14,16
14,21
15,25
16,22
18,31
19,24
20,48
21,23
22,27
22,29
22,30
24,30
24,31
24,47
25,26
25,28
25,32
27,40
28,33
29,37
30,35
31,36
31,39
32,34
32,38
34,42
35,41
35,49
36,42
36,45
37,45
37,46
38,44
39,43
42,50
44,47
46,48
46,49

<end>
